32      4       
14      19      15      16      
0       0       0       0       0       3       2       3       4       
8       3       0       0       6       4       5       7       9       10      
6       0       19      0       16      2       5       9       
9       0       14      0       16      2       5       9       
8       12      0       9       0       1       6       
9       0       19      15      0       1       8       
2       0       19      0       6       1       8       
4       12      0       7       0       2       11      18      
5       12      17      0       0       2       11      18      
9       0       19      0       16      2       11      18      
10      14      0       0       14      3       12      17      20      
8       14      0       13      0       2       13      14      
9       0       12      0       6       2       15      19      
8       6       5       0       0       2       16      19      
6       0       19      15      0       1       16      
6       0       17      13      0       2       21      22      
10      14      0       15      0       2       23      25      
2       0       10      0       16      1       19      
7       14      0       0       10      2       24      25      
8       0       0       7       11      2       24      25      
2       0       1       0       7       1       23      
1       11      0       8       0       2       25      26      
2       13      0       15      0       1       24      
6       14      0       2       0       3       26      27      31      
9       2       17      0       0       3       27      28      31      
6       14      12      0       0       2       28      30      
6       0       0       10      16      2       29      30      
3       0       14      15      0       1       29      
8       3       0       0       12      1       32      
9       0       0       12      16      1       32      
1       0       0       13      12      1       32      
0       0       0       0       0       0       
